scenarios/sols/small/emicp_milp/000.sol
objective value:                     1.92356590402372
x(0,4,0)                                            1 	(obj:0)
x(1,3,0)                                            1 	(obj:0)
x(2,1,0)                                            1 	(obj:0)
x(3,7,0)                                            1 	(obj:0)
x(4,2,0)                                            1 	(obj:0)
x(7,10,0)                                           1 	(obj:0)
x(10,0,0)                                           1 	(obj:0)
xc(0,1)                                             1 	(obj:0)
xc(1,2)                                             1 	(obj:0)
xc(2,0)                                             1 	(obj:0)
xc(3,5)                                             1 	(obj:0)
xc(4,0)                                             1 	(obj:0)
xc(7,9)                                             1 	(obj:0)
u(1,0)                              0.485906261240813 	(obj:0)
u(2,0)                              0.269035713269769 	(obj:0)
u(3,0)                              0.885523351671243 	(obj:0)
u(4,0)                             0.0317814597024893 	(obj:0)
u(6,0)                               1.92356590402372 	(obj:0)
u(7,0)                               1.44118565785836 	(obj:0)
u(10,0)                              1.92356590402372 	(obj:0)
u(12,0)                            0.0509997095829995 	(obj:0)
u(13,0)                              0.15691088863366 	(obj:0)
u(14,0)                           0.00935398717192992 	(obj:0)
u(15,0)                            0.0436309827915098 	(obj:0)
u(16,0)                           0.00854965046551026 	(obj:0)
u(17,0)                              0.12581408824849 	(obj:0)
u(18,0)                              0.13735046427018 	(obj:0)
u(19,0)                              0.29434429874952 	(obj:0)
f(0,1,0)                                            1 	(obj:0)
f(0,1,2)                                            1 	(obj:0)
f(0,1,4)                                            1 	(obj:0)
f(1,3,0)                                            1 	(obj:0)
f(1,3,1)                                            1 	(obj:0)
f(1,3,2)                                            1 	(obj:0)
f(1,3,4)                                            1 	(obj:0)
f(2,0,2)                                            1 	(obj:0)
f(3,7,0)                                            1 	(obj:0)
f(3,7,1)                                            1 	(obj:0)
f(3,7,2)                                            1 	(obj:0)
f(3,7,3)                                            1 	(obj:0)
f(3,7,4)                                            1 	(obj:0)
f(4,0,4)                                            1 	(obj:0)
f(7,9,0)                                            1 	(obj:0)
f(7,9,1)                                            1 	(obj:0)
f(7,9,2)                                            1 	(obj:0)
f(7,9,3)                                            1 	(obj:0)
f(7,9,4)                                            1 	(obj:0)
z_r(0,)                              1.92356590402372 	(obj:0)
z                                    1.92356590402372 	(obj:1)
